words_hard_train/6343.qaiger
aag 101 23 0 1 78
2
4
8
10
18
20
38
46
58
66
78
86
96
104
122
126
138
142
146
154
168
172
174
203
6 2 5
12 8 11
14 7 13
16 3 4
22 19 20
24 17 23
26 14 25
28 21 11
30 28 5
32 27 31
34 9 10
36 32 35
40 31 38
42 30 39
44 41 43
48 45 47
50 44 46
52 49 51
54 36 52
56 55 51
60 43 58
62 42 59
64 61 63
68 65 67
70 64 66
72 69 71
74 57 72
76 75 71
80 63 78
82 62 79
84 81 83
88 84 86
90 76 89
92 85 87
94 91 93
98 83 96
100 82 97
102 99 101
106 103 105
108 102 104
110 107 109
112 95 111
114 94 110
116 113 115
118 56 73
120 119 75
124 120 123
128 125 126
130 37 53
132 131 55
134 18 21
136 135 23
140 137 139
144 141 142
148 144 146
150 132 149
152 133 148
156 153 155
158 151 157
160 121 122
162 159 161
164 128 163
166 117 164
170 166 169
176 172 174
178 173 175
180 177 179
182 180 101
184 181 100
186 183 185
188 115 109
190 187 188
192 186 189
194 191 193
196 116 168
198 196 165
200 194 199
202 171 201
i0 1 x1[1]
i1 2 y2[1]
i2 1 x1[2]
i3 2 y2[2]
i4 1 x1[0]
i5 2 y2[0]
i6 2 y2[3]
i7 1 x1[3]
i8 2 y2[4]
i9 1 x1[4]
i10 2 y2[5]
i11 1 x1[5]
i12 2 y2[6]
i13 1 x1[6]
i14 1 x2[5]
i15 1 x2[6]
i16 1 x2[1]
i17 1 x2[3]
i18 1 x2[2]
i19 1 x2[4]
i20 1 x2[7]
i21 1 x1[7]
i22 2 y2[7]
o0 bv[0]
c
simplified
  <=
    or
      38
      subtract
        1 x1
        2 y2
    >> 1
      1 x2
