words_hard_train/6343.qaiger.qdimacs
p cnf 101 235
a 1 33 4 69 71 9 73 43 77 52 84 86 23 61 63 0
e 2 3 5 6 7 8 10 11 12 13 14 15 16 17 18 19 20 21 22 24 25 26 27 28 29 30 31 32 34 35 36 37 38 39 40 41 42 44 45 46 47 48 49 50 51 53 54 55 56 57 58 59 60 62 64 65 66 67 68 70 72 74 75 76 78 79 80 81 82 83 85 87 88 89 90 91 92 93 94 95 96 97 98 99 100 101 0
-1 2 3 0
1 -3 0
-2 -3 0
-4 5 6 0
4 -6 0
-5 -6 0
3 6 7 0
-3 -7 0
-6 -7 0
1 -2 8 0
-1 -8 0
2 -8 0
9 -10 11 0
-9 -11 0
10 -11 0
8 11 12 0
-8 -12 0
-11 -12 0
-7 12 13 0
7 -13 0
-12 -13 0
10 5 14 0
-10 -14 0
-5 -14 0
-14 2 15 0
14 -15 0
-2 -15 0
13 15 16 0
-13 -16 0
-15 -16 0
4 -5 17 0
-4 -17 0
5 -17 0
-16 17 18 0
16 -18 0
-17 -18 0
15 -19 20 0
-15 -20 0
19 -20 0
-15 19 21 0
15 -21 0
-19 -21 0
20 21 22 0
-20 -22 0
-21 -22 0
22 23 24 0
-22 -24 0
-23 -24 0
-22 -23 25 0
22 -25 0
23 -25 0
24 25 26 0
-24 -26 0
-25 -26 0
-18 -26 27 0
18 -27 0
26 -27 0
27 25 28 0
-27 -28 0
-25 -28 0
21 -29 30 0
-21 -30 0
29 -30 0
-21 29 31 0
21 -31 0
-29 -31 0
30 31 32 0
-30 -32 0
-31 -32 0
32 33 34 0
-32 -34 0
-33 -34 0
-32 -33 35 0
32 -35 0
33 -35 0
34 35 36 0
-34 -36 0
-35 -36 0
28 -36 37 0
-28 -37 0
36 -37 0
37 35 38 0
-37 -38 0
-35 -38 0
31 -39 40 0
-31 -40 0
39 -40 0
-31 39 41 0
31 -41 0
-39 -41 0
40 41 42 0
-40 -42 0
-41 -42 0
-42 -43 44 0
42 -44 0
43 -44 0
-38 44 45 0
38 -45 0
-44 -45 0
42 43 46 0
-42 -46 0
-43 -46 0
45 46 47 0
-45 -47 0
-46 -47 0
41 -48 49 0
-41 -49 0
48 -49 0
-41 48 50 0
41 -50 0
-48 -50 0
49 50 51 0
-49 -51 0
-50 -51 0
51 52 53 0
-51 -53 0
-52 -53 0
-51 -52 54 0
51 -54 0
52 -54 0
53 54 55 0
-53 -55 0
-54 -55 0
47 55 56 0
-47 -56 0
-55 -56 0
-47 -55 57 0
47 -57 0
55 -57 0
56 57 58 0
-56 -58 0
-57 -58 0
-28 36 59 0
28 -59 0
-36 -59 0
59 37 60 0
-59 -60 0
-37 -60 0
-60 61 62 0
60 -62 0
-61 -62 0
62 -63 64 0
-62 -64 0
63 -64 0
18 26 65 0
-18 -65 0
-26 -65 0
65 27 66 0
-65 -66 0
-27 -66 0
-9 10 67 0
9 -67 0
-10 -67 0
67 11 68 0
-67 -68 0
-11 -68 0
68 69 70 0
-68 -70 0
-69 -70 0
70 -71 72 0
-70 -72 0
71 -72 0
-72 -73 74 0
72 -74 0
73 -74 0
-66 74 75 0
66 -75 0
-74 -75 0
66 -74 76 0
-66 -76 0
74 -76 0
76 77 78 0
-76 -78 0
-77 -78 0
75 78 79 0
-75 -79 0
-78 -79 0
60 -61 80 0
-60 -80 0
61 -80 0
79 80 81 0
-79 -81 0
-80 -81 0
-64 81 82 0
64 -82 0
-81 -82 0
58 -82 83 0
-58 -83 0
82 -83 0
-83 84 85 0
83 -85 0
-84 -85 0
-86 -87 88 0
86 -88 0
87 -88 0
86 87 89 0
-86 -89 0
-87 -89 0
88 89 90 0
-88 -90 0
-89 -90 0
-90 50 91 0
90 -91 0
-50 -91 0
90 -50 92 0
-90 -92 0
50 -92 0
91 92 93 0
-91 -93 0
-92 -93 0
57 54 94 0
-57 -94 0
-54 -94 0
93 -94 95 0
-93 -95 0
94 -95 0
-93 94 96 0
93 -96 0
-94 -96 0
95 96 97 0
-95 -97 0
-96 -97 0
-58 -84 98 0
58 -98 0
84 -98 0
-98 82 99 0
98 -99 0
-82 -99 0
-97 99 100 0
97 -100 0
-99 -100 0
85 100 101 0
-85 -101 0
-100 -101 0
-101 0
